results_rootrelaxation/bin024_050_006.srr.sol
solution status: optimal solution found
objective value:                                    0
_var294_                           0.0161649207557646 	(obj:0)
_var554_                           0.0698095603974544 	(obj:0)
_var731_                           0.0404284466432271 	(obj:0)
_var6916_                          0.0123563445834914 	(obj:0)
_var6918_                          0.0983778894794472 	(obj:0)
_var6921_                          0.0835249457653447 	(obj:0)
_var6923_                           0.126181991550471 	(obj:0)
_var6926_                           0.128589774315116 	(obj:0)
_var6932_                         0.00678583504165395 	(obj:0)
_var6939_                          0.0981403683383761 	(obj:0)
_var6941_                          0.0785137177531146 	(obj:0)
_var6943_                           0.370326313684723 	(obj:0)
_var6946_                           0.136303045087535 	(obj:0)
_var6950_                          0.0666713408503842 	(obj:0)
_var6952_                           0.197371055278353 	(obj:0)
_var6955_                           0.068710422054376 	(obj:0)
_var6990_                           0.138179439251829 	(obj:0)
_var6991_                          0.0821081827226987 	(obj:0)
_var7005_                          0.0299505267071842 	(obj:0)
_var7007_                          0.0678971697094641 	(obj:0)
_var7013_                           0.130551439227618 	(obj:0)
_var7017_                          0.0830483333968572 	(obj:0)
_var7018_                           0.157214428524917 	(obj:0)
_var7020_                           0.227004175936695 	(obj:0)
_var7022_                          0.0181299143255326 	(obj:0)
_var7023_                          0.0542338781735274 	(obj:0)
_var7025_                           0.167200481499789 	(obj:0)
_var7027_                           0.134708719795794 	(obj:0)
_var7029_                          0.0399106984387479 	(obj:0)
_var7030_                           0.165713171633227 	(obj:0)
_var7033_                          0.0563552609520777 	(obj:0)
_var7034_                          0.0194569636245414 	(obj:0)
_var7038_                          0.0633958683413284 	(obj:0)
_var7039_                          0.0398512697545481 	(obj:0)
_var7040_                           0.143436306525573 	(obj:0)
_var7041_                          0.0126742566791467 	(obj:0)
_var7042_                           0.265813580633775 	(obj:0)
_var7044_                          0.0609455425753668 	(obj:0)
_var7046_                           0.162824477960215 	(obj:0)
_var7048_                         0.00596077037426562 	(obj:0)
_var7049_                         0.00187557386106515 	(obj:0)
_var7057_                          0.0776993670702829 	(obj:0)
_var7058_                          0.0919666893655574 	(obj:0)
_var7059_                           0.152797646019523 	(obj:0)
_var7064_                          0.0881893123218085 	(obj:0)
_var7072_                            0.17948536995628 	(obj:0)
_var7073_                           0.308822707681484 	(obj:0)
_var7077_                          0.0469832644411019 	(obj:0)
_var7078_                          0.0211529334096043 	(obj:0)
_var7080_                           0.138089824267907 	(obj:0)
_var7087_                           0.163216256249536 	(obj:0)
_var7092_                          0.0900584321619255 	(obj:0)
_var7095_                           0.133795156940472 	(obj:0)
_var7097_                            0.19998792536557 	(obj:0)
_var7099_                          0.0349996262571327 	(obj:0)
_var7101_                           0.148335291614106 	(obj:0)
_var7107_                          0.0125123020336122 	(obj:0)
_var7108_                           0.194459814428371 	(obj:0)
_var7109_                           0.228799878001857 	(obj:0)
_var7111_                          0.0866441226955889 	(obj:0)
_var7114_                          0.0533626788109459 	(obj:0)
_var7115_                          0.0942088928541638 	(obj:0)
_var7117_                           0.164880141710956 	(obj:0)
_var7120_                           0.119230204285822 	(obj:0)
_var7122_                          0.0932666201865571 	(obj:0)
_var7123_                          0.0529399218426684 	(obj:0)
_var7124_                          0.0498206379298285 	(obj:0)
_var7125_                           0.100921170640407 	(obj:0)
_var7126_                            0.13966359337933 	(obj:0)
_var7127_                          0.0261136698869471 	(obj:0)
_var7137_                           0.106940766764943 	(obj:0)
_var7138_                           0.124178047770484 	(obj:0)
_var7141_                          0.0283315809648056 	(obj:0)
_var7149_                           0.184054442999293 	(obj:0)
_var7150_                           0.200965261424476 	(obj:0)
_var7151_                          0.0173184385150801 	(obj:0)
_var7152_                           0.120356602771044 	(obj:0)
_var7153_                           0.135161706667382 	(obj:0)
_var7160_                          0.0630940949232728 	(obj:0)
_var7162_                           0.179331124091581 	(obj:0)
_var7164_                           0.242870193731551 	(obj:0)
_var7170_                           0.287528311528304 	(obj:0)
_var7171_                           0.242362584648861 	(obj:0)
_var7173_                           0.039647367621149 	(obj:0)
_var7192_                          0.0456543896933294 	(obj:0)
_var7195_                            0.12431166448827 	(obj:0)
_var7197_                          0.0317434537861866 	(obj:0)
_var7198_                           0.192899512890136 	(obj:0)
_var7200_                          0.0980937533385337 	(obj:0)
_var7202_                            0.10965450471295 	(obj:0)
_var7203_                           0.202329463662064 	(obj:0)
_var7204_                           0.116415604484423 	(obj:0)
_var7205_                          0.0863252510640634 	(obj:0)
_var7206_                          0.0125074205169473 	(obj:0)
_var7208_                          0.0984772672570015 	(obj:0)
_var7209_                          0.0196948266682044 	(obj:0)
_var7212_                           0.241989723173209 	(obj:0)
_var7213_                           0.275935485670745 	(obj:0)
_var7215_                          0.0728571069237164 	(obj:0)
_var7216_                           0.125895838577589 	(obj:0)
_var7217_                         0.00259316498476042 	(obj:0)
_var7220_                          0.0481632378309172 	(obj:0)
_var7222_                           0.112361701228076 	(obj:0)
_var7232_                           0.257805362831155 	(obj:0)
_var7233_                          0.0493198584677696 	(obj:0)
_var7236_                          0.0873477160888352 	(obj:0)
_var7237_                          0.0295994454504321 	(obj:0)
_var7238_                           0.125394301433782 	(obj:0)
_var7242_                           0.110951753149923 	(obj:0)
_var7245_                           0.107434357240431 	(obj:0)
_var7246_                            0.25525272251188 	(obj:0)
_var7247_                           0.102123074847116 	(obj:0)
_var7251_                           0.161353996845775 	(obj:0)
_var7254_                           0.204643454716558 	(obj:0)
_var7256_                         0.00666483728020926 	(obj:0)
_var7257_                          0.0922385504976107 	(obj:0)
_var7258_                           0.141923042624387 	(obj:0)
_var7259_                          0.0665431924712749 	(obj:0)
_var7260_                          0.0486764360101036 	(obj:0)
_var7263_                           0.155859394921855 	(obj:0)
_var7264_                          0.0832050046579702 	(obj:0)
_var7265_                           0.068319980641317 	(obj:0)
_var7267_                           0.128377832669022 	(obj:0)
_var7273_                           0.141560990967317 	(obj:0)
_var7274_                          0.0176744938416597 	(obj:0)
_var7275_                          0.0455044182502105 	(obj:0)
_var7280_                          0.0990058430722092 	(obj:0)
_var7282_                          0.0195592628744237 	(obj:0)
_var7283_                          0.0488535274697227 	(obj:0)
_var7284_                           0.131727380839122 	(obj:0)
_var7285_                          0.0191447936318855 	(obj:0)
_var7286_                          0.0055471557442057 	(obj:0)
_var7288_                         0.00346074088037921 	(obj:0)
_var7290_                          0.0943463170620034 	(obj:0)
_var7293_                          0.0405804380940511 	(obj:0)
_var7295_                          0.0606960975543673 	(obj:0)
_var7296_                           0.125284047618679 	(obj:0)
_var7297_                           0.165217667516603 	(obj:0)
_var7298_                           0.156755469564832 	(obj:0)
_var7299_                           0.108658046845975 	(obj:0)
_var7300_                           0.127440646030063 	(obj:0)
_var7301_                          0.0220300097500729 	(obj:0)
_var7304_                           0.130517158069682 	(obj:0)
_var7305_                         0.00653545697942985 	(obj:0)
_var7306_                          0.0360521476364033 	(obj:0)
_var7312_                          0.0690242265519599 	(obj:0)
_var7313_                          0.0431831233922554 	(obj:0)
_var7315_                          0.0886761341397648 	(obj:0)
_var7316_                          0.0631126171177139 	(obj:0)
_var7317_                         0.00400415313320684 	(obj:0)
_var7319_                           0.107981890169114 	(obj:0)
_var7320_                            0.12452199610256 	(obj:0)
_var7321_                          0.0988058574349109 	(obj:0)
_var7323_                          0.0891977988733417 	(obj:0)
_var7325_                         0.00729682139356301 	(obj:0)
_var7326_                           0.154404983179921 	(obj:0)
_var7328_                          0.0737453666827598 	(obj:0)
_var7329_                          0.0548623265392564 	(obj:0)
_var7330_                           0.259311053846341 	(obj:0)
_var7333_                          0.0547593063634732 	(obj:0)
_var7334_                          0.0277446121189064 	(obj:0)
_var7335_                          0.0386179397053469 	(obj:0)
_var7336_                          0.0772786385097824 	(obj:0)
_var7337_                           0.112722255392042 	(obj:0)
_var7339_                            0.01952227451243 	(obj:0)
_var7340_                          0.0305512575097009 	(obj:0)
_var7341_                          0.0862454324840682 	(obj:0)
_var7342_                         0.00143953304537432 	(obj:0)
_var7344_                          0.0681934895900139 	(obj:0)
_var7346_                           0.115219238281164 	(obj:0)
_var7347_                            0.10522009969217 	(obj:0)
_var7348_                           0.136022676972602 	(obj:0)
_var7351_                         0.00460272424771523 	(obj:0)
_var7352_                           0.124326302577349 	(obj:0)
_var7353_                          0.0429633003222411 	(obj:0)
_var7354_                          0.0973597640492002 	(obj:0)
_var7355_                          0.0253075621470204 	(obj:0)
_var7357_                          0.0200161663816106 	(obj:0)
_var7360_                          0.0510353090086574 	(obj:0)
_var7361_                          0.0186158395391786 	(obj:0)
_var7363_                          0.0603354487971663 	(obj:0)
_var7370_                           0.179190923081944 	(obj:0)
_var7371_                          0.0700659470517083 	(obj:0)
_var7372_                          0.0257826197079792 	(obj:0)
_var7373_                          0.0260059761181593 	(obj:0)
_var7374_                           0.178543593438852 	(obj:0)
_var7376_                          0.0343334636017916 	(obj:0)
_var7377_                          0.0602850679147693 	(obj:0)
_var7378_                           0.137704667790329 	(obj:0)
_var7379_                         0.00898383201294128 	(obj:0)
_var7382_                          0.0783782409291899 	(obj:0)
_var7384_                          0.0753835825641029 	(obj:0)
_var7385_                          0.0424575967097915 	(obj:0)
_var7386_                          0.0756439660584932 	(obj:0)
_var7390_                            0.11184842664932 	(obj:0)
_var7391_                           0.101252832870161 	(obj:0)
_var7392_                          0.0131006952090929 	(obj:0)
_var7393_                         0.00465621146713587 	(obj:0)
_var7394_                          0.0830253420012602 	(obj:0)
_var7395_                          0.0918462695768913 	(obj:0)
_var7396_                          0.0209026071635853 	(obj:0)
_var7398_                          0.0610232560722775 	(obj:0)
_var7400_                          0.0502842337847365 	(obj:0)
_var7401_                          0.0041389277489926 	(obj:0)
_var7402_                          0.0865712715074424 	(obj:0)
_var7405_                          0.0455007145400323 	(obj:0)
_var7407_                          0.0816556432081817 	(obj:0)
_var7409_                          0.0638839510777597 	(obj:0)
_var7410_                          0.0784756982382995 	(obj:0)
_var7411_                           0.246502943435065 	(obj:0)
_var7415_                          0.0426433040539601 	(obj:0)
_var7419_                         0.00510575092318872 	(obj:0)
_var7420_                          0.0921298346421936 	(obj:0)
_var7423_                          0.0404936100942188 	(obj:0)
_var7424_                          0.0270046501165965 	(obj:0)
_var7427_                           0.136574652709522 	(obj:0)
_var7428_                          0.0176473846786072 	(obj:0)
_var7430_                          0.0210227346954037 	(obj:0)
_var7431_                          0.0791984398649243 	(obj:0)
_var7435_                          0.0749583565616697 	(obj:0)
_var7436_                          0.0432700860912924 	(obj:0)
_var7437_                            0.12998410804424 	(obj:0)
_var7438_                          0.0170340464505487 	(obj:0)
_var7439_                          0.0642171939167133 	(obj:0)
_var7441_                          0.0583550327309085 	(obj:0)
_var7442_                          0.0754032432593672 	(obj:0)
_var7443_                          0.0302946791411892 	(obj:0)
_var7444_                          0.0878660570121356 	(obj:0)
_var7445_                          0.0181609131466245 	(obj:0)
_var7446_                          0.0356054686778954 	(obj:0)
_var7448_                         0.000948924059216902 	(obj:0)
_var7450_                           0.153504580636673 	(obj:0)
_var7452_                          0.0766413927737591 	(obj:0)
_var7453_                          0.0327007313665213 	(obj:0)
_var7454_                          0.0349119125149155 	(obj:0)
_var7455_                          0.0819890257947196 	(obj:0)
_var7456_                          0.0337368878759135 	(obj:0)
_var7459_                           0.054886616477891 	(obj:0)
_var7461_                           0.011888990413762 	(obj:0)
_var7462_                          0.0091439790075945 	(obj:0)
_var7464_                         0.00285818736262881 	(obj:0)
_var7465_                         0.00898384230984514 	(obj:0)
_var7466_                          0.0500328762767023 	(obj:0)
_var7467_                           0.130589308486501 	(obj:0)
_var7469_                          0.0436807206169255 	(obj:0)
_var7470_                         0.000649180447457415 	(obj:0)
_var7474_                           0.084623746483019 	(obj:0)
_var7477_                          0.0771508216312169 	(obj:0)
_var7479_                           0.119387376005539 	(obj:0)
_var7481_                          0.0758456994073739 	(obj:0)
_var7482_                          0.0623508057887715 	(obj:0)
_var7483_                           0.100089331028114 	(obj:0)
_var7484_                          0.0255271775269117 	(obj:0)
_var7489_                          0.0748191130471315 	(obj:0)
_var7491_                          0.0480933424282441 	(obj:0)
_var7492_                          0.0204133281709365 	(obj:0)
_var7494_                          0.0216701369198569 	(obj:0)
_var7499_                          0.0942877744535137 	(obj:0)
_var7500_                          0.0152435415783671 	(obj:0)
_var7501_                         0.00164154948631293 	(obj:0)
_var7504_                          0.0357859408065792 	(obj:0)
_var7505_                           0.104349954811116 	(obj:0)
_var7506_                          0.0345119522911947 	(obj:0)
_var7510_                          0.0319770863945734 	(obj:0)
_var7513_                          0.0162746049594407 	(obj:0)
_var7514_                          0.0110848485591685 	(obj:0)
_var7516_                         0.00807130522587968 	(obj:0)
_var7517_                          0.0605856686494691 	(obj:0)
_var7518_                          0.0404874448450066 	(obj:0)
_var7520_                           0.035299703352209 	(obj:0)
_var7521_                           0.066250070676706 	(obj:0)
_var7523_                         0.000605204807735238 	(obj:0)
_var7524_                          0.0224121153391663 	(obj:0)
_var7526_                          0.0338108143433323 	(obj:0)
_var7532_                           0.061246641378714 	(obj:0)
